c Result of efficient AIG-to-CNF conversion using package CNF
p cnf 490 1866
-2 3 325 387 392 0
-2 -3 -325 387 392 0
2 -387 0
2 3 -325 0
2 -392 0
2 -3 325 0
3 4 -234 0
3 -4 234 0
-3 -4 -234 0
-3 4 234 0
4 5 -226 0
4 -5 226 0
-4 -5 -226 0
-4 5 226 0
5 -459 -6 0
5 -6 -50 0
5 -459 -50 0
-5 459 50 0
-5 6 50 0
-5 459 6 0
6 453 -7 22 0
6 -453 22 -36 0
-6 -22 0
-6 -453 36 0
-6 453 7 0
7 454 -8 0
7 -454 -15 0
-7 -454 15 0
-7 454 8 0
8 455 -9 0
8 -455 -12 0
-8 -455 12 0
-8 455 9 0
9 456 -10 0
9 -456 -11 0
-9 -456 11 0
-9 456 10 0
10 457 -459 0
10 -457 -460 0
-10 -457 460 0
-10 457 459 0
11 457 -461 0
11 -457 -462 0
-11 -457 462 0
-11 457 461 0
12 456 -13 0
12 -456 -14 0
-12 -456 14 0
-12 456 13 0
13 457 -463 0
13 -457 -464 0
-13 -457 464 0
-13 457 463 0
14 457 -465 0
14 -457 -466 0
-14 -457 466 0
-14 457 465 0
15 455 -16 0
15 -455 -19 0
-15 -455 19 0
-15 455 16 0
16 456 -17 0
16 -456 -18 0
-16 -456 18 0
-16 456 17 0
17 457 -467 0
17 -457 -468 0
-17 -457 468 0
-17 457 467 0
18 457 -469 0
18 -457 -470 0
-18 -457 470 0
-18 457 469 0
19 456 -20 0
19 -456 -21 0
-19 -456 21 0
-19 456 20 0
20 457 -471 0
20 -457 -472 0
-20 -457 472 0
-20 457 471 0
21 457 -473 0
21 -457 -474 0
-21 -457 474 0
-21 457 473 0
-22 23 30 0
22 -23 0
22 -30 0
-23 452 24 0
23 -452 0
23 -24 0
-24 439 440 25 0
24 -25 0
24 -440 0
24 -439 0
-25 26 27 0
25 -26 0
25 -27 0
-26 441 442 443 444 0
26 -444 0
26 -443 0
26 -441 0
26 -442 0
-27 28 29 0
27 -28 0
27 -29 0
-28 445 446 447 448 0
28 -448 0
28 -447 0
28 -445 0
28 -446 0
-29 449 450 451 0
29 -449 0
29 -451 0
29 -450 0
-30 426 31 32 33 0
30 -426 0
30 -33 0
30 -32 0
30 -31 0
-31 436 437 438 0
31 -436 0
31 -438 0
31 -437 0
-32 430 431 432 0
32 -430 0
32 -432 0
32 -431 0
-33 429 435 34 35 0
33 -429 0
33 -35 0
33 -34 0
33 -435 0
-34 427 428 0
34 -427 0
34 -428 0
-35 433 434 0
35 -433 0
35 -434 0
36 454 -37 0
36 -454 -44 0
-36 -454 44 0
-36 454 37 0
37 455 -38 0
37 -455 -41 0
-37 -455 41 0
-37 455 38 0
38 456 -39 0
38 -456 -40 0
-38 -456 40 0
-38 456 39 0
39 457 -475 0
39 -457 -476 0
-39 -457 476 0
-39 457 475 0
40 457 -477 0
40 -457 -478 0
-40 -457 478 0
-40 457 477 0
41 456 -42 0
41 -456 -43 0
-41 -456 43 0
-41 456 42 0
42 457 -479 0
42 -457 -480 0
-42 -457 480 0
-42 457 479 0
43 457 -481 0
43 -457 -482 0
-43 -457 482 0
-43 457 481 0
44 455 -45 0
44 -455 -48 0
-44 -455 48 0
-44 455 45 0
45 456 -46 0
45 -456 -47 0
-45 -456 47 0
-45 456 46 0
46 457 -483 0
46 -457 -484 0
-46 -457 484 0
-46 457 483 0
47 457 -485 0
47 -457 -486 0
-47 -457 486 0
-47 457 485 0
48 456 -49 0
48 -456 457 -489 0
-48 -456 -457 0
-48 456 49 0
-48 -456 489 0
49 457 -487 0
49 -457 -488 0
-49 -457 488 0
-49 457 487 0
50 -460 -51 0
50 -51 -80 0
50 -460 -80 0
-50 460 80 0
-50 51 80 0
-50 460 51 0
51 453 22 -65 0
51 -453 22 -52 0
-51 -22 0
-51 -453 52 0
-51 453 65 0
52 454 -53 0
52 -454 -60 0
-52 -454 60 0
-52 454 53 0
53 455 -54 0
53 -455 -57 0
-53 -455 57 0
-53 455 54 0
54 456 -55 0
54 -456 -56 0
-54 -456 56 0
-54 456 55 0
55 457 -476 0
55 -457 -477 0
-55 -457 477 0
-55 457 476 0
56 457 -478 0
56 -457 -479 0
-56 -457 479 0
-56 457 478 0
57 456 -58 0
57 -456 -59 0
-57 -456 59 0
-57 456 58 0
58 457 -480 0
58 -457 -481 0
-58 -457 481 0
-58 457 480 0
59 457 -482 0
59 -457 -483 0
-59 -457 483 0
-59 457 482 0
60 455 -61 0
60 -455 -64 0
-60 -455 64 0
-60 455 61 0
61 456 -62 0
61 -456 -63 0
-61 -456 63 0
-61 456 62 0
62 457 -484 0
62 -457 -485 0
-62 -457 485 0
-62 457 484 0
63 457 -486 0
63 -457 -487 0
-63 -457 487 0
-63 457 486 0
64 456 -457 -489 0
64 456 457 -488 0
-64 -456 0
-64 -457 489 0
-64 457 488 0
65 454 -66 0
65 -454 -73 0
-65 -454 73 0
-65 454 66 0
66 455 -67 0
66 -455 -70 0
-66 -455 70 0
-66 455 67 0
67 456 -68 0
67 -456 -69 0
-67 -456 69 0
-67 456 68 0
68 457 -460 0
68 -457 -461 0
-68 -457 461 0
-68 457 460 0
69 457 -462 0
69 -457 -463 0
-69 -457 463 0
-69 457 462 0
70 456 -71 0
70 -456 -72 0
-70 -456 72 0
-70 456 71 0
71 457 -464 0
71 -457 -465 0
-71 -457 465 0
-71 457 464 0
72 457 -466 0
72 -457 -467 0
-72 -457 467 0
-72 457 466 0
73 455 -74 0
73 -455 -77 0
-73 -455 77 0
-73 455 74 0
74 456 -75 0
74 -456 -76 0
-74 -456 76 0
-74 456 75 0
75 457 -468 0
75 -457 -469 0
-75 -457 469 0
-75 457 468 0
76 457 -470 0
76 -457 -471 0
-76 -457 471 0
-76 457 470 0
77 456 -78 0
77 -456 -79 0
-77 -456 79 0
-77 456 78 0
78 457 -472 0
78 -457 -473 0
-78 -457 473 0
-78 457 472 0
79 457 -474 0
79 -457 -475 0
-79 -457 475 0
-79 457 474 0
80 -461 -81 0
80 -81 -96 0
80 -461 -96 0
-80 461 96 0
-80 81 96 0
-80 461 81 0
81 453 22 -89 0
81 -453 22 -82 0
-81 -22 0
-81 -453 82 0
-81 453 89 0
82 454 -83 0
82 -454 -86 0
-82 -454 86 0
-82 454 83 0
83 455 -84 0
83 -455 -85 0
-83 -455 85 0
-83 455 84 0
84 456 -40 0
84 -456 -42 0
-84 -456 42 0
-84 456 40 0
85 456 -43 0
85 -456 -46 0
-85 -456 46 0
-85 456 43 0
86 455 -87 0
86 -455 -88 0
-86 -455 88 0
-86 455 87 0
87 456 -47 0
87 -456 -49 0
-87 -456 49 0
-87 456 47 0
88 456 457 -489 0
-88 489 0
-88 -457 0
-88 -456 0
89 454 -90 0
89 -454 -93 0
-89 -454 93 0
-89 454 90 0
90 455 -91 0
90 -455 -92 0
-90 -455 92 0
-90 455 91 0
91 456 -11 0
91 -456 -13 0
-91 -456 13 0
-91 456 11 0
92 456 -14 0
92 -456 -17 0
-92 -456 17 0
-92 456 14 0
93 455 -94 0
93 -455 -95 0
-93 -455 95 0
-93 455 94 0
94 456 -18 0
94 -456 -20 0
-94 -456 20 0
-94 456 18 0
95 456 -21 0
95 -456 -39 0
-95 -456 39 0
-95 456 21 0
96 -462 -97 0
96 -97 -117 0
96 -462 -117 0
-96 462 117 0
-96 97 117 0
-96 462 97 0
97 24 -98 105 106 0
-97 -106 0
-97 -24 0
-97 -105 0
-97 98 0
-98 453 -454 102 0
-98 453 454 99 0
98 -453 0
98 -454 -102 0
98 454 -99 0
99 455 -100 0
99 -455 -101 0
-99 -455 101 0
-99 455 100 0
100 456 -69 0
100 -456 -71 0
-100 -456 71 0
-100 456 69 0
101 456 -72 0
101 -456 -75 0
-101 -456 75 0
-101 456 72 0
102 455 -103 0
102 -455 -104 0
-102 -455 104 0
-102 455 103 0
103 456 -76 0
103 -456 -78 0
-103 -456 78 0
-103 456 76 0
104 -456 -55 0
104 456 -79 0
-104 456 79 0
-104 -456 55 0
-105 426 435 452 0
105 -426 0
105 -452 0
105 -435 0
-106 453 31 107 0
-106 31 107 -110 0
106 -107 0
106 -31 0
106 -453 110 0
-107 108 109 0
107 -108 0
107 -109 0
-108 431 432 433 434 0
108 -434 0
108 -433 0
108 -431 0
108 -432 0
-109 427 428 429 430 0
109 -430 0
109 -429 0
109 -427 0
109 -428 0
110 454 -111 0
110 -454 -114 0
-110 -454 114 0
-110 454 111 0
111 455 -112 0
111 -455 -113 0
-111 -455 113 0
-111 455 112 0
112 456 -56 0
112 -456 -58 0
-112 -456 58 0
-112 456 56 0
113 456 -59 0
113 -456 -62 0
-113 -456 62 0
-113 456 59 0
114 455 -115 0
-114 -455 0
-114 115 0
115 456 -63 0
115 -456 -116 0
-115 -456 116 0
-115 456 63 0
116 457 -488 0
116 -457 -489 0
-116 -457 489 0
-116 457 488 0
117 -463 -118 0
117 -118 -129 0
117 -463 -129 0
-117 463 129 0
-117 118 129 0
-117 463 118 0
118 27 107 -119 122 0
-118 -122 0
-118 -27 0
-118 -107 0
-118 119 0
-119 453 -454 121 0
-119 453 454 120 0
119 -453 0
119 -454 -121 0
119 454 -120 0
120 455 -12 0
120 -455 -16 0
-120 -455 16 0
-120 455 12 0
121 455 -19 0
121 -455 -38 0
-121 -455 38 0
-121 455 19 0
-122 442 123 105 124 0
122 -442 0
122 -124 0
122 -105 0
122 -123 0
-123 443 444 0
123 -443 0
123 -444 0
-124 453 31 125 0
-124 31 125 -126 0
124 -125 0
124 -31 0
124 -453 126 0
-125 439 440 441 0
125 -439 0
125 -441 0
125 -440 0
126 454 -127 0
126 -454 -128 0
-126 -454 128 0
-126 454 127 0
127 455 -41 0
127 -455 -45 0
-127 -455 45 0
-127 455 41 0
128 455 -48 0
-128 -455 0
-128 48 0
129 -464 -130 0
129 -130 -137 0
129 -464 -137 0
-129 464 137 0
-129 130 137 0
-129 464 130 0
130 -453 22 -134 0
130 453 22 -131 0
-130 -22 0
-130 -453 134 0
-130 453 131 0
-131 454 132 0
-131 -454 133 0
131 -454 -133 0
131 454 -132 0
-132 -455 74 0
-132 455 70 0
132 455 -70 0
132 -455 -74 0
133 -455 -54 0
133 455 -77 0
-133 455 77 0
-133 -455 54 0
134 454 -135 0
134 -454 -136 0
-134 -454 136 0
-134 454 135 0
135 455 -57 0
135 -455 -61 0
-135 -455 61 0
-135 455 57 0
136 455 -64 0
-136 -455 0
-136 64 0
137 -465 -138 0
137 -138 -145 0
137 -465 -145 0
-137 465 145 0
-137 138 145 0
-137 465 138 0
138 -453 22 -142 0
138 453 22 -139 0
-138 -22 0
-138 -453 142 0
-138 453 139 0
139 454 -140 0
139 -454 -141 0
-139 -454 141 0
-139 454 140 0
140 455 -92 0
140 -455 -94 0
-140 -455 94 0
-140 455 92 0
141 -455 -84 0
141 455 -95 0
-141 455 95 0
-141 -455 84 0
142 454 -143 0
142 -454 -144 0
-142 -454 144 0
-142 454 143 0
143 455 -85 0
143 -455 -87 0
-143 -455 87 0
-143 455 85 0
144 455 456 457 -489 0
-144 489 0
-144 -457 0
-144 -455 0
-144 -456 0
145 -466 -146 0
145 -146 -152 0
145 -466 -152 0
-145 466 152 0
-145 146 152 0
-145 466 146 0
146 -453 22 -150 0
146 453 22 -147 0
-146 -22 0
-146 -453 150 0
-146 453 147 0
-147 454 149 0
-147 -454 148 0
147 -454 -148 0
147 454 -149 0
148 455 -104 0
148 -455 -112 0
-148 -455 112 0
-148 455 104 0
149 455 -101 0
149 -455 -103 0
-149 -455 103 0
-149 455 101 0
150 454 -151 0
-150 -454 0
-150 151 0
151 455 -113 0
151 -455 -115 0
-151 -455 115 0
-151 455 113 0
152 -467 -153 0
152 -153 -156 0
152 -467 -156 0
-152 467 156 0
-152 153 156 0
-152 467 153 0
153 -453 22 -155 0
153 453 22 -154 0
-153 -22 0
-153 -453 155 0
-153 453 154 0
-154 -454 37 0
-154 454 15 0
154 454 -15 0
154 -454 -37 0
155 454 -44 0
-155 -454 0
-155 44 0
156 -468 -157 0
156 -157 -160 0
156 -468 -160 0
-156 468 160 0
-156 157 160 0
-156 468 157 0
157 -453 22 -159 0
157 453 22 -158 0
-157 -22 0
-157 -453 159 0
-157 453 158 0
-158 454 73 0
-158 -454 53 0
158 -454 -53 0
158 454 -73 0
159 454 -60 0
-159 -454 0
-159 60 0
160 -469 -161 0
160 -161 -164 0
160 -469 -164 0
-160 469 164 0
-160 161 164 0
-160 469 161 0
161 -453 22 -163 0
161 453 22 -162 0
-161 -22 0
-161 -453 163 0
-161 453 162 0
-162 454 93 0
-162 -454 83 0
162 -454 -83 0
162 454 -93 0
163 454 -86 0
-163 -454 0
-163 86 0
164 -470 -165 0
164 -165 -168 0
164 -470 -168 0
-164 470 168 0
-164 165 168 0
-164 470 165 0
165 -453 22 -167 0
165 453 22 -166 0
-165 -22 0
-165 -453 167 0
-165 453 166 0
-166 -454 111 0
-166 454 102 0
166 454 -102 0
166 -454 -111 0
167 454 -114 0
-167 -454 0
-167 114 0
168 -471 -169 0
168 -169 -172 0
168 -471 -172 0
-168 471 172 0
-168 169 172 0
-168 471 169 0
169 -453 22 -171 0
169 453 22 -170 0
-169 -22 0
-169 -453 171 0
-169 453 170 0
-170 -454 127 0
-170 454 121 0
170 454 -121 0
170 -454 -127 0
171 454 -128 0
-171 -454 0
-171 128 0
172 -472 -173 0
172 -173 -176 0
172 -472 -176 0
-172 472 176 0
-172 173 176 0
-172 472 173 0
173 -453 22 -175 0
173 453 22 -174 0
-173 -22 0
-173 -453 175 0
-173 453 174 0
-174 -454 135 0
-174 454 133 0
174 454 -133 0
174 -454 -135 0
175 454 -136 0
-175 -454 0
-175 136 0
176 -473 -177 0
176 -177 -180 0
176 -473 -180 0
-176 473 180 0
-176 177 180 0
-176 473 177 0
177 -453 22 -179 0
177 453 22 -178 0
-177 -22 0
-177 -453 179 0
-177 453 178 0
-178 -454 143 0
-178 454 141 0
178 454 -141 0
178 -454 -143 0
179 454 -144 0
-179 -454 0
-179 144 0
180 -474 -181 0
180 -181 -187 0
180 -474 -187 0
-180 474 187 0
-180 181 187 0
-180 474 181 0
181 452 453 -182 183 0
-181 -452 0
-181 -183 0
-181 182 0
-181 -453 0
182 454 -148 0
182 -454 -151 0
-182 -454 151 0
-182 454 148 0
-183 25 31 184 0
183 -25 0
183 -31 0
183 -184 0
-184 439 440 185 186 0
184 -439 0
184 -186 0
184 -185 0
184 -440 0
-185 435 108 0
185 -435 0
185 -108 0
-186 426 429 430 34 0
186 -34 0
186 -430 0
186 -426 0
186 -429 0
187 -475 -188 0
187 -188 -191 0
187 -475 -191 0
-187 475 191 0
-187 188 191 0
-187 475 188 0
188 -36 184 189 0
-188 36 0
-188 -184 0
-188 -189 0
-189 26 29 31 190 0
189 -190 0
189 -26 0
189 -31 0
189 -29 0
-190 452 453 28 0
190 -28 0
190 -453 0
190 -452 0
191 -476 -192 0
191 -192 -197 0
191 -476 -197 0
-191 476 197 0
-191 192 197 0
-191 476 192 0
192 29 35 -193 196 0
-192 -196 0
-192 -29 0
-192 193 0
-192 -35 0
193 -52 109 194 195 0
-193 -195 0
-193 52 0
-193 -194 0
-193 -109 0
-194 431 432 436 437 0
194 -437 0
194 -436 0
194 -431 0
194 -432 0
-195 426 435 125 0
195 -125 0
195 -435 0
195 -426 0
-196 438 442 123 190 0
196 -438 0
196 -190 0
196 -123 0
196 -442 0
197 -477 -198 0
197 -198 -203 0
197 -477 -203 0
-197 477 203 0
-197 198 203 0
-197 477 198 0
198 438 199 201 -202 0
-198 -438 0
-198 202 0
-198 -201 0
-198 -199 0
-199 426 430 194 200 0
199 -426 0
199 -200 0
199 -194 0
199 -430 0
-200 443 444 125 190 0
200 -443 0
200 -190 0
200 -125 0
200 -444 0
-201 442 29 0
201 -442 0
201 -29 0
202 33 -82 0
-202 -33 0
-202 82 0
203 -478 -204 0
203 -204 -205 0
203 -478 -205 0
-203 478 205 0
-203 204 205 0
-203 478 204 0
204 30 -110 200 201 0
-204 -201 0
-204 -30 0
-204 -200 0
-204 110 0
205 -479 -206 0
205 -206 -208 0
205 -479 -208 0
-205 479 208 0
-205 206 208 0
-205 479 206 0
206 -126 207 0
-206 126 0
-206 -207 0
-207 30 200 201 0
207 -30 0
207 -200 0
207 -201 0
208 -480 -209 0
208 -209 -210 0
208 -480 -210 0
-208 480 210 0
-208 209 210 0
-208 480 209 0
209 -134 207 0
-209 134 0
-209 -207 0
210 -481 -211 0
210 -211 -212 0
210 -481 -212 0
-210 481 212 0
-210 211 212 0
-210 481 211 0
211 -142 207 0
-211 142 0
-211 -207 0
212 -482 -213 0
212 -213 -214 0
212 -482 -214 0
-212 482 214 0
-212 213 214 0
-212 482 213 0
213 -150 207 0
-213 150 0
-213 -207 0
214 -483 -215 0
214 -215 -216 0
214 -483 -216 0
-214 483 216 0
-214 215 216 0
-214 483 215 0
215 -155 207 0
-215 155 0
-215 -207 0
216 -484 -217 0
216 -217 -218 0
216 -484 -218 0
-216 484 218 0
-216 217 218 0
-216 484 217 0
217 -159 207 0
-217 159 0
-217 -207 0
218 -485 -219 0
218 -219 -220 0
218 -485 -220 0
-218 485 220 0
-218 219 220 0
-218 485 219 0
219 -163 207 0
-219 163 0
-219 -207 0
220 -486 -221 0
220 -221 -222 0
220 -486 -222 0
-220 486 222 0
-220 221 222 0
-220 486 221 0
221 -167 207 0
-221 167 0
-221 -207 0
222 -487 -223 0
222 -223 -224 0
222 -487 -224 0
-222 487 224 0
-222 223 224 0
-222 487 223 0
223 -171 207 0
-223 171 0
-223 -207 0
224 -488 -225 0
-224 488 0
-224 225 0
225 -175 207 0
-225 175 0
-225 -207 0
226 -458 227 0
226 458 -227 0
-226 458 227 0
-226 -458 -227 0
-227 426 228 0
227 -426 0
227 -228 0
228 -453 -182 233 0
228 453 -229 233 0
-228 -233 0
-228 -453 182 0
-228 453 229 0
229 -454 -149 0
229 454 -230 0
-229 454 230 0
-229 -454 149 0
230 -455 -100 0
230 455 -231 0
-230 455 231 0
-230 -455 100 0
231 -456 -68 0
231 456 -232 0
-231 -456 68 0
-231 456 232 0
-232 -457 459 0
-232 457 458 0
232 457 -458 0
232 -457 -459 0
-233 23 31 109 185 0
233 -185 0
233 -23 0
233 -109 0
233 -31 0
234 -427 -237 0
234 -427 -235 0
234 -235 -237 0
-234 235 237 0
-234 427 237 0
-234 427 235 0
-235 -50 -236 0
-235 50 236 0
235 50 -236 0
235 -50 236 0
236 459 -6 0
236 -459 6 0
-236 -459 -6 0
-236 459 6 0
237 -428 -240 0
237 -428 -238 0
237 -238 -240 0
-237 238 240 0
-237 428 240 0
-237 428 238 0
-238 -80 -239 0
-238 80 239 0
238 80 -239 0
238 -80 239 0
239 460 -51 0
239 -460 51 0
-239 -460 -51 0
-239 460 51 0
240 -429 -243 0
240 -429 -241 0
240 -241 -243 0
-240 241 243 0
-240 429 243 0
-240 429 241 0
-241 -96 -242 0
-241 96 242 0
241 96 -242 0
241 -96 242 0
242 461 -81 0
242 -461 81 0
-242 -461 -81 0
-242 461 81 0
243 -430 -246 0
243 -430 -244 0
243 -244 -246 0
-243 244 246 0
-243 430 246 0
-243 430 244 0
-244 -117 -245 0
-244 117 245 0
244 117 -245 0
244 -117 245 0
245 462 -97 0
245 -462 97 0
-245 -462 -97 0
-245 462 97 0
246 -431 -249 0
246 -431 -247 0
246 -247 -249 0
-246 247 249 0
-246 431 249 0
-246 431 247 0
-247 -129 -248 0
-247 129 248 0
247 129 -248 0
247 -129 248 0
248 463 -118 0
248 -463 118 0
-248 -463 -118 0
-248 463 118 0
249 -432 -252 0
249 -432 -250 0
249 -250 -252 0
-249 250 252 0
-249 432 252 0
-249 432 250 0
-250 -137 -251 0
-250 137 251 0
250 137 -251 0
250 -137 251 0
251 464 -130 0
251 -464 130 0
-251 -464 -130 0
-251 464 130 0
252 -433 -255 0
252 -433 -253 0
252 -253 -255 0
-252 253 255 0
-252 433 255 0
-252 433 253 0
-253 -145 -254 0
-253 145 254 0
253 145 -254 0
253 -145 254 0
254 465 -138 0
254 -465 138 0
-254 -465 -138 0
-254 465 138 0
255 -434 -258 0
255 -434 -256 0
255 -256 -258 0
-255 256 258 0
-255 434 258 0
-255 434 256 0
-256 -152 -257 0
-256 152 257 0
256 152 -257 0
256 -152 257 0
257 466 -146 0
257 -466 146 0
-257 -466 -146 0
-257 466 146 0
258 -435 -261 0
258 -435 -259 0
258 -259 -261 0
-258 259 261 0
-258 435 261 0
-258 435 259 0
-259 -156 -260 0
-259 156 260 0
259 156 -260 0
259 -156 260 0
260 467 -153 0
260 -467 153 0
-260 -467 -153 0
-260 467 153 0
261 -436 -264 0
261 -436 -262 0
261 -262 -264 0
-261 262 264 0
-261 436 264 0
-261 436 262 0
-262 -160 -263 0
-262 160 263 0
262 160 -263 0
262 -160 263 0
263 468 -157 0
263 -468 157 0
-263 -468 -157 0
-263 468 157 0
264 -437 -267 0
264 -437 -265 0
264 -265 -267 0
-264 265 267 0
-264 437 267 0
-264 437 265 0
-265 -164 -266 0
-265 164 266 0
265 164 -266 0
265 -164 266 0
266 469 -161 0
266 -469 161 0
-266 -469 -161 0
-266 469 161 0
267 -438 -270 0
267 -438 -268 0
267 -268 -270 0
-267 268 270 0
-267 438 270 0
-267 438 268 0
-268 -168 -269 0
-268 168 269 0
268 168 -269 0
268 -168 269 0
269 470 -165 0
269 -470 165 0
-269 -470 -165 0
-269 470 165 0
270 -439 -273 0
270 -439 -271 0
270 -271 -273 0
-270 271 273 0
-270 439 273 0
-270 439 271 0
-271 -172 -272 0
-271 172 272 0
271 172 -272 0
271 -172 272 0
272 471 -169 0
272 -471 169 0
-272 -471 -169 0
-272 471 169 0
273 -440 -276 0
273 -440 -274 0
273 -274 -276 0
-273 274 276 0
-273 440 276 0
-273 440 274 0
-274 -176 -275 0
-274 176 275 0
274 176 -275 0
274 -176 275 0
275 472 -173 0
275 -472 173 0
-275 -472 -173 0
-275 472 173 0
276 -441 -279 0
276 -441 -277 0
276 -277 -279 0
-276 277 279 0
-276 441 279 0
-276 441 277 0
-277 -180 -278 0
-277 180 278 0
277 180 -278 0
277 -180 278 0
278 473 -177 0
278 -473 177 0
-278 -473 -177 0
-278 473 177 0
279 -442 -282 0
279 -442 -280 0
279 -280 -282 0
-279 280 282 0
-279 442 282 0
-279 442 280 0
-280 -187 -281 0
-280 187 281 0
280 187 -281 0
280 -187 281 0
281 474 -181 0
281 -474 181 0
-281 -474 -181 0
-281 474 181 0
282 -443 -285 0
282 -443 -283 0
282 -283 -285 0
-282 283 285 0
-282 443 285 0
-282 443 283 0
-283 -191 -284 0
-283 191 284 0
283 191 -284 0
283 -191 284 0
284 475 -188 0
284 -475 188 0
-284 -475 -188 0
-284 475 188 0
285 -444 -288 0
285 -444 -286 0
285 -286 -288 0
-285 286 288 0
-285 444 288 0
-285 444 286 0
-286 -197 -287 0
-286 197 287 0
286 197 -287 0
286 -197 287 0
287 476 -192 0
287 -476 192 0
-287 -476 -192 0
-287 476 192 0
288 -445 -291 0
288 -445 -289 0
288 -289 -291 0
-288 289 291 0
-288 445 291 0
-288 445 289 0
-289 -203 -290 0
-289 203 290 0
289 203 -290 0
289 -203 290 0
290 477 -198 0
290 -477 198 0
-290 -477 -198 0
-290 477 198 0
291 -446 -294 0
291 -446 -292 0
291 -292 -294 0
-291 292 294 0
-291 446 294 0
-291 446 292 0
-292 -205 -293 0
-292 205 293 0
292 205 -293 0
292 -205 293 0
293 478 -204 0
293 -478 204 0
-293 -478 -204 0
-293 478 204 0
294 -447 -297 0
294 -447 -295 0
294 -295 -297 0
-294 295 297 0
-294 447 297 0
-294 447 295 0
-295 -208 -296 0
-295 208 296 0
295 208 -296 0
295 -208 296 0
296 479 -206 0
296 -479 206 0
-296 -479 -206 0
-296 479 206 0
297 -448 -300 0
297 -448 -298 0
297 -298 -300 0
-297 298 300 0
-297 448 300 0
-297 448 298 0
-298 -210 -299 0
-298 210 299 0
298 210 -299 0
298 -210 299 0
299 480 -209 0
299 -480 209 0
-299 -480 -209 0
-299 480 209 0
300 -449 -303 0
300 -449 -301 0
300 -301 -303 0
-300 301 303 0
-300 449 303 0
-300 449 301 0
-301 -212 -302 0
-301 212 302 0
301 212 -302 0
301 -212 302 0
302 481 -211 0
302 -481 211 0
-302 -481 -211 0
-302 481 211 0
303 -450 -306 0
303 -450 -304 0
303 -304 -306 0
-303 304 306 0
-303 450 306 0
-303 450 304 0
-304 -214 -305 0
-304 214 305 0
304 214 -305 0
304 -214 305 0
305 482 -213 0
305 -482 213 0
-305 -482 -213 0
-305 482 213 0
306 -451 -309 0
306 -451 -307 0
306 -307 -309 0
-306 307 309 0
-306 451 309 0
-306 451 307 0
-307 -216 -308 0
-307 216 308 0
307 216 -308 0
307 -216 308 0
308 483 -215 0
308 -483 215 0
-308 -483 -215 0
-308 483 215 0
309 -452 -310 0
309 -310 -312 0
309 -452 -312 0
-309 452 312 0
-309 310 312 0
-309 452 310 0
310 218 -311 0
310 -218 311 0
-310 -218 -311 0
-310 218 311 0
311 484 -217 0
311 -484 217 0
-311 -484 -217 0
-311 484 217 0
312 -453 -313 0
312 -313 -315 0
312 -453 -315 0
-312 453 315 0
-312 313 315 0
-312 453 313 0
313 220 -314 0
313 -220 314 0
-313 -220 -314 0
-313 220 314 0
314 485 -219 0
314 -485 219 0
-314 -485 -219 0
-314 485 219 0
315 -454 -316 0
315 -316 -318 0
315 -454 -318 0
-315 454 318 0
-315 316 318 0
-315 454 316 0
316 222 -317 0
316 -222 317 0
-316 -222 -317 0
-316 222 317 0
317 486 -221 0
317 -486 221 0
-317 -486 -221 0
-317 486 221 0
318 -455 -319 0
318 -319 -321 0
318 -455 -321 0
-318 455 321 0
-318 319 321 0
-318 455 319 0
319 224 -320 0
319 -224 320 0
-319 -224 -320 0
-319 224 320 0
320 487 -223 0
320 -487 223 0
-320 -487 -223 0
-320 487 223 0
321 -456 -324 0
321 -456 -322 0
321 -322 -324 0
-321 322 324 0
-321 456 324 0
-321 456 322 0
-322 -488 -225 323 0
-322 488 225 323 0
322 -323 0
322 -488 225 0
322 488 -225 0
323 -179 207 0
-323 179 0
-323 -207 0
324 -457 -489 323 0
-324 457 0
-324 489 0
-324 -323 0
325 226 -326 0
325 -226 326 0
-325 -226 -326 0
-325 226 326 0
326 -459 -328 0
326 -459 -327 0
326 -327 -328 0
-326 327 328 0
-326 459 328 0
-326 459 327 0
-327 427 6 0
327 -427 0
327 -6 0
328 -460 -330 0
328 -460 -329 0
328 -329 -330 0
-328 329 330 0
-328 460 330 0
-328 460 329 0
-329 428 51 0
329 -428 0
329 -51 0
330 -461 -332 0
330 -461 -331 0
330 -331 -332 0
-330 331 332 0
-330 461 332 0
-330 461 331 0
-331 429 81 0
331 -429 0
331 -81 0
332 -462 -334 0
332 -462 -333 0
332 -333 -334 0
-332 333 334 0
-332 462 334 0
-332 462 333 0
-333 430 97 0
333 -430 0
333 -97 0
334 -463 -336 0
334 -463 -335 0
334 -335 -336 0
-334 335 336 0
-334 463 336 0
-334 463 335 0
-335 431 118 0
335 -431 0
335 -118 0
336 -464 -338 0
336 -464 -337 0
336 -337 -338 0
-336 337 338 0
-336 464 338 0
-336 464 337 0
-337 432 130 0
337 -432 0
337 -130 0
338 -465 -340 0
338 -465 -339 0
338 -339 -340 0
-338 339 340 0
-338 465 340 0
-338 465 339 0
-339 433 138 0
339 -433 0
339 -138 0
340 -466 -342 0
340 -466 -341 0
340 -341 -342 0
-340 341 342 0
-340 466 342 0
-340 466 341 0
-341 434 146 0
341 -434 0
341 -146 0
342 -467 -344 0
342 -467 -343 0
342 -343 -344 0
-342 343 344 0
-342 467 344 0
-342 467 343 0
-343 435 153 0
343 -435 0
343 -153 0
344 -468 -346 0
344 -468 -345 0
344 -345 -346 0
-344 345 346 0
-344 468 346 0
-344 468 345 0
-345 436 157 0
345 -436 0
345 -157 0
346 -469 -348 0
346 -469 -347 0
346 -347 -348 0
-346 347 348 0
-346 469 348 0
-346 469 347 0
-347 437 161 0
347 -437 0
347 -161 0
348 -470 -350 0
348 -470 -349 0
348 -349 -350 0
-348 349 350 0
-348 470 350 0
-348 470 349 0
-349 438 165 0
349 -438 0
349 -165 0
350 -471 -352 0
350 -471 -351 0
350 -351 -352 0
-350 351 352 0
-350 471 352 0
-350 471 351 0
-351 439 169 0
351 -439 0
351 -169 0
352 -472 -354 0
352 -472 -353 0
352 -353 -354 0
-352 353 354 0
-352 472 354 0
-352 472 353 0
-353 440 173 0
353 -440 0
353 -173 0
354 -473 -356 0
354 -473 -355 0
354 -355 -356 0
-354 355 356 0
-354 473 356 0
-354 473 355 0
-355 441 177 0
355 -441 0
355 -177 0
356 -474 -358 0
356 -474 -357 0
356 -357 -358 0
-356 357 358 0
-356 474 358 0
-356 474 357 0
-357 442 181 0
357 -442 0
357 -181 0
358 -475 -360 0
358 -475 -359 0
358 -359 -360 0
-358 359 360 0
-358 475 360 0
-358 475 359 0
-359 443 188 0
359 -443 0
359 -188 0
360 -476 -362 0
360 -476 -361 0
360 -361 -362 0
-360 361 362 0
-360 476 362 0
-360 476 361 0
-361 444 192 0
361 -444 0
361 -192 0
362 -477 -364 0
362 -477 -363 0
362 -363 -364 0
-362 363 364 0
-362 477 364 0
-362 477 363 0
-363 445 198 0
363 -445 0
363 -198 0
364 -478 -366 0
364 -478 -365 0
364 -365 -366 0
-364 365 366 0
-364 478 366 0
-364 478 365 0
-365 446 204 0
365 -446 0
365 -204 0
366 -479 -368 0
366 -479 -367 0
366 -367 -368 0
-366 367 368 0
-366 479 368 0
-366 479 367 0
-367 447 206 0
367 -447 0
367 -206 0
368 -480 -370 0
368 -480 -369 0
368 -369 -370 0
-368 369 370 0
-368 480 370 0
-368 480 369 0
-369 448 209 0
369 -448 0
369 -209 0
370 -481 -372 0
370 -481 -371 0
370 -371 -372 0
-370 371 372 0
-370 481 372 0
-370 481 371 0
-371 449 211 0
371 -449 0
371 -211 0
372 -482 -374 0
372 -482 -373 0
372 -373 -374 0
-372 373 374 0
-372 482 374 0
-372 482 373 0
-373 450 213 0
373 -450 0
373 -213 0
374 -483 -376 0
374 -483 -375 0
374 -375 -376 0
-374 375 376 0
-374 483 376 0
-374 483 375 0
-375 451 215 0
375 -451 0
375 -215 0
376 -484 -378 0
376 -484 -377 0
376 -377 -378 0
-376 377 378 0
-376 484 378 0
-376 484 377 0
-377 452 217 0
377 -452 0
377 -217 0
378 -485 -380 0
378 -485 -379 0
378 -379 -380 0
-378 379 380 0
-378 485 380 0
-378 485 379 0
-379 453 219 0
379 -453 0
379 -219 0
380 -486 -382 0
380 -486 -381 0
380 -381 -382 0
-380 381 382 0
-380 486 382 0
-380 486 381 0
-381 454 221 0
381 -454 0
381 -221 0
382 -487 -384 0
382 -487 -383 0
382 -383 -384 0
-382 383 384 0
-382 487 384 0
-382 487 383 0
-383 455 223 0
383 -455 0
383 -223 0
384 -488 -386 0
384 -488 -385 0
384 -385 -386 0
-384 385 386 0
-384 488 386 0
-384 488 385 0
-385 456 225 0
385 -456 0
385 -225 0
386 -457 -489 0
386 -489 -323 0
-386 489 0
-386 457 323 0
387 388 -390 0
387 -388 390 0
-387 -388 -390 0
-387 388 390 0
388 237 -389 0
388 -237 389 0
-388 -237 -389 0
-388 237 389 0
389 -427 235 0
389 427 -235 0
-389 427 235 0
-389 -427 -235 0
390 328 -391 0
390 -328 391 0
-390 -328 -391 0
-390 328 391 0
391 -459 327 0
391 459 -327 0
-391 459 327 0
-391 -459 -327 0
-392 393 398 400 402 0
-392 393 -398 -400 402 0
392 -402 0
392 -398 400 0
392 -393 0
392 398 -400 0
393 394 -396 0
393 -394 396 0
-393 -394 -396 0
-393 394 396 0
394 240 -395 0
394 -240 395 0
-394 -240 -395 0
-394 240 395 0
395 -428 238 0
395 428 -238 0
-395 428 238 0
-395 -428 -238 0
396 330 -397 0
396 -330 397 0
-396 -330 -397 0
-396 330 397 0
397 -460 329 0
397 460 -329 0
-397 460 329 0
-397 -460 -329 0
398 243 -399 0
398 -243 399 0
-398 -243 -399 0
-398 243 399 0
399 -429 241 0
399 429 -241 0
-399 429 241 0
-399 -429 -241 0
400 332 -401 0
400 -332 401 0
-400 -332 -401 0
-400 332 401 0
401 -461 331 0
401 461 -331 0
-401 461 331 0
-401 -461 -331 0
-402 403 408 410 412 0
-402 403 -408 -410 412 0
402 -412 0
402 -408 410 0
402 -403 0
402 408 -410 0
403 404 -406 0
403 -404 406 0
-403 -404 -406 0
-403 404 406 0
404 246 -405 0
404 -246 405 0
-404 -246 -405 0
-404 246 405 0
405 -430 244 0
405 430 -244 0
-405 430 244 0
-405 -430 -244 0
406 334 -407 0
406 -334 407 0
-406 -334 -407 0
-406 334 407 0
407 -462 333 0
407 462 -333 0
-407 462 333 0
-407 -462 -333 0
408 249 -409 0
408 -249 409 0
-408 -249 -409 0
-408 249 409 0
409 -431 247 0
409 431 -247 0
-409 431 247 0
-409 -431 -247 0
410 336 -411 0
410 -336 411 0
-410 -336 -411 0
-410 336 411 0
411 -463 335 0
411 463 -335 0
-411 463 335 0
-411 -463 -335 0
-412 -413 -415 417 0
-412 413 415 417 0
412 -417 0
412 -413 415 0
412 413 -415 0
413 252 -414 0
413 -252 414 0
-413 -252 -414 0
-413 252 414 0
414 -432 250 0
414 432 -250 0
-414 432 250 0
-414 -432 -250 0
415 338 -416 0
415 -338 416 0
-415 -338 -416 0
-415 338 416 0
416 -464 337 0
416 464 -337 0
-416 464 337 0
-416 -464 -337 0
-417 418 420 -422 -424 0
-417 -418 -420 -422 -424 0
-417 418 420 422 424 0
-417 -418 -420 422 424 0
417 418 -420 0
417 -418 420 0
417 422 -424 0
417 -422 424 0
418 255 -419 0
418 -255 419 0
-418 -255 -419 0
-418 255 419 0
419 -433 253 0
419 433 -253 0
-419 433 253 0
-419 -433 -253 0
420 340 -421 0
420 -340 421 0
-420 -340 -421 0
-420 340 421 0
421 -465 339 0
421 465 -339 0
-421 465 339 0
-421 -465 -339 0
422 258 -423 0
422 -258 423 0
-422 -258 -423 0
-422 258 423 0
423 -434 256 0
423 434 -256 0
-423 434 256 0
-423 -434 -256 0
424 342 -425 0
424 -342 425 0
-424 -342 -425 0
-424 342 425 0
425 -466 341 0
425 466 -341 0
-425 466 341 0
-425 -466 -341 0
-490 0
2 0

